50, 2476391
100034, 409
100082, 542
100084, 863
100004, 177
100015, 226
100022, 30
100001, 117
100076, 9
100065, 157
100054, 514
100100, 990
100036, 694
100020, 379
100011, 406
100034, 692
100084, 327
100061, 74
100005, 842
100043, 618
100004, 113
100062, 71
100012, 95
100018, 959
100064, 108
100084, 626
100062, 970
100029, 36
100065, 386
100027, 478
100000, 917
100027, 189
100069, 259
100063, 248
100019, 50
100084, 674
100083, 817
100028, 437
100097, 38
100026, 714
100006, 738
100051, 654
100087, 329
100060, 831
100055, 631
100049, 590
100028, 541
100030, 234
100040, 456
100055, 795
100095, 684
